30 61
28
9 24 0 3
9 8 21 0
11 9 0 27
9 17 8 44
4 24 4 36
4 8 0 36
1 6 26 38
1 5 26 28
4 17 0 44
6 3 17 44
3 5 9 6
5 12 25 14
13 12 17 49
14 14 11 14
2 14 9 11
2 2 28 44
3 8 8 36
9 8 12 6
12 14 11 30
12 2 11 28
6 3 14 0
9 6 21 8
5 2 23 44
13 2 17 47
3 18 27 26
14 3 0 0
3 16 23 28
12 3 9 3
